51 6
10 10 10 10 10 10
1 0 0 0 0 0 0 3 2 3 4
6 0 7 9 9 0 0 3 5 6 8
4 0 0 0 6 4 0 3 5 7 8
2 0 7 10 0 0 0 3 6 7 8
4 0 5 6 0 7 10 4 9 10 11 12
1 10 6 7 9 3 0 1 10
3 3 4 10 0 8 0 2 11 12
3 7 0 0 0 7 0 1 10
3 7 0 0 0 0 0 2 14 15
5 0 9 10 9 0 10 3 13 14 15
6 0 0 0 3 0 0 3 13 14 16
1 0 5 0 0 5 0 2 14 15
8 0 0 0 0 0 3 2 19 20
1 8 7 10 0 0 3 1 18
4 0 0 0 0 0 9 4 17 18 19 20
3 6 4 0 10 9 10 3 17 19 20
2 0 0 10 0 0 8 3 22 23 24
3 0 0 0 10 9 7 3 21 22 24
6 6 0 0 7 0 0 3 21 22 24
10 0 10 10 0 9 0 2 22 23
2 0 4 9 4 3 0 3 26 27 28
3 5 0 3 0 5 0 1 26
10 0 0 10 7 0 0 2 25 26
1 0 0 10 5 0 0 1 26
10 0 6 0 4 10 7 1 31
1 0 8 4 0 7 4 1 31
1 4 0 10 0 0 0 2 31 32
4 6 0 0 4 7 6 3 29 30 31
3 0 0 8 8 8 0 2 33 36
1 0 0 0 3 5 9 3 33 35 36
3 10 10 0 8 0 9 2 34 35
4 0 0 0 0 0 10 3 33 35 36
1 10 0 9 10 0 0 2 37 38
8 3 0 10 8 10 0 3 37 38 39
1 4 10 5 10 3 0 2 38 40
1 10 10 3 0 5 7 1 39
10 10 10 0 0 0 0 2 41 44
3 0 10 6 0 0 0 3 41 43 44
1 10 0 0 10 0 6 2 41 43
1 0 0 0 0 0 0 2 41 42
2 0 10 0 6 0 0 3 45 46 47
1 9 9 0 0 6 0 1 45
1 10 5 0 0 0 0 2 45 47
4 7 0 0 7 0 9 2 46 48
2 10 0 10 4 5 6 1 49
4 3 0 4 3 9 0 1 50
3 4 7 0 0 0 0 1 50
1 8 0 0 0 0 0 1 49
2 0 8 0 0 9 9 1 51
7 0 0 0 6 10 0 1 51
0 0 0 0 0 0 0 0
